Version identifier: 22.1.0.0 | 2022-03-09 | 1a383f8ce
CPXPARAM_Read_DataCheck                          1
1 of 1 MIP starts provided solutions.
MIP start 'm1' defined initial solution with objective 76.0000.
Tried aggregator 3 times.
MIP Presolve eliminated 157510 rows and 11189 columns.
MIP Presolve modified 1607 coefficients.
Aggregator did 148022 substitutions.
Reduced MIP has 13534 rows, 151781 columns, and 317413 nonzeros.
Reduced MIP has 151737 binaries, 44 generals, 0 SOSs, and 0 indicators.
Presolve time = 2.17 sec. (2080.88 ticks)
Tried aggregator 1 time.
Detecting symmetries...
Reduced MIP has 13534 rows, 151781 columns, and 317413 nonzeros.
Reduced MIP has 151737 binaries, 44 generals, 0 SOSs, and 0 indicators.
Presolve time = 0.37 sec. (229.03 ticks)
Probing fixed 66 vars, tightened 0 bounds.
Probing changed sense of 14 constraints.
Probing time = 0.29 sec. (38.59 ticks)
Clique table members: 306989.
MIP emphasis: balance optimality and feasibility.
MIP search method: dynamic search.
Parallel mode: deterministic, using up to 8 threads.
Root relaxation solution time = 1.50 sec. (1080.16 ticks)

        Nodes                                         Cuts/
   Node  Left     Objective  IInf  Best Integer    Best Bound    ItCnt     Gap

*     0+    0                           76.0000        0.0000           100.00%
      0     0       44.4221 10468       76.0000       44.4221       24   41.55%
      0     0       75.0000  1185       76.0000     Fract: 31    23062    1.32%
      0     0       75.0000  1038       76.0000      Cuts: 73    76302    1.32%

Repeating presolve.
Tried aggregator 3 times.
MIP Presolve eliminated 2582 rows and 72114 columns.
MIP Presolve modified 3 coefficients.
Aggregator did 2170 substitutions.
Reduced MIP has 8782 rows, 77497 columns, and 163013 nonzeros.
Reduced MIP has 77497 binaries, 0 generals, 0 SOSs, and 0 indicators.
Presolve time = 0.37 sec. (311.93 ticks)
Tried aggregator 2 times.
Detecting symmetries...
Aggregator did 2 substitutions.
Reduced MIP has 8780 rows, 77495 columns, and 163011 nonzeros.
Reduced MIP has 77495 binaries, 0 generals, 0 SOSs, and 0 indicators.
Presolve time = 0.18 sec. (139.70 ticks)
Represolve time = 0.81 sec. (648.33 ticks)

        Nodes                                         Cuts/
   Node  Left     Objective  IInf  Best Integer    Best Bound    ItCnt     Gap

      0     1  -1.00000e+37     0       76.0000       75.0000    76302    1.32%

Root node processing (before b&c):
  Real time             =  199.90 sec. (110621.31 ticks)
Parallel b&c, 8 threads:
  Real time             =    0.00 sec. (0.00 ticks)
  Sync time (average)   =    0.00 sec.
  Wait time (average)   =    0.00 sec.
                          ------------
Total (root+branch&cut) =  199.90 sec. (110621.31 ticks)
